p wcnf 146 174 175 
1 22 -58 0 
1 133 -20 0 
1 -61 -62 0 
1 -5 52 0 
1 -12 109 0 
1 -29 7 0 
1 -65 21 0 
1 139 11 0 
1 -121 36 0 
1 -4 -80 0 
1 121 -38 0 
1 -112 50 0 
1 -5 103 0 
1 128 106 0 
1 145 112 0 
1 84 35 0 
1 -131 -97 0 
1 141 -45 0 
1 -51 -26 0 
1 -83 -67 0 
1 88 -82 0 
1 88 41 0 
1 -140 -123 0 
1 -126 -25 0 
1 24 70 0 
1 -86 9 0 
1 -129 -4 0 
1 68 122 0 
1 17 128 0 
1 89 -71 0 
1 -52 -146 0 
1 -47 -16 0 
1 17 -84 0 
1 -71 83 0 
1 -29 18 0 
1 59 32 0 
1 -110 -84 0 
1 65 93 0 
1 -134 -80 0 
1 -12 -2 0 
1 22 -132 0 
1 110 -107 0 
1 119 133 0 
1 -70 -138 0 
1 -74 -104 0 
1 -98 -83 0 
1 5 62 0 
1 75 -22 0 
1 5 -71 0 
1 -49 48 0 
1 141 7 0 
1 -138 143 0 
1 69 74 0 
1 113 96 0 
1 -106 -15 0 
1 7 -15 0 
1 74 3 0 
1 -31 77 0 
1 -104 41 0 
1 115 -6 0 
1 35 -26 0 
1 -144 84 0 
1 -35 -8 0 
1 141 -17 0 
1 1 -95 0 
1 -15 -134 0 
1 3 67 0 
1 61 -30 0 
1 -125 -109 0 
1 -83 50 0 
1 -66 61 0 
1 -51 48 0 
1 31 -88 0 
1 -57 -19 0 
1 -77 -107 0 
1 8 51 0 
1 100 50 0 
1 -65 36 0 
1 -121 -2 0 
1 101 18 0 
1 51 142 0 
1 -100 59 0 
1 123 139 0 
1 -113 120 0 
1 75 -26 0 
1 -127 -41 0 
1 -58 -143 0 
1 115 10 0 
1 7 4 0 
1 -67 -22 0 
1 72 -75 0 
1 40 -117 0 
1 -20 -121 0 
1 -101 119 0 
1 127 -136 0 
1 -89 -26 0 
1 -48 87 0 
1 73 9 0 
1 -45 -143 0 
1 -22 39 0 
1 105 -134 0 
1 87 -8 0 
1 -105 75 0 
1 86 145 0 
1 -50 -76 0 
1 -71 -22 0 
1 -65 89 0 
1 -135 -62 0 
1 14 -130 0 
1 103 -2 0 
1 -4 3 0 
1 -102 119 0 
1 8 -103 0 
1 -119 140 0 
1 -141 58 0 
1 -90 137 0 
1 -30 97 0 
1 68 7 0 
1 -38 -44 0 
1 -140 32 0 
1 -83 48 0 
1 -111 76 0 
1 141 55 0 
1 13 -85 0 
1 -124 79 0 
1 81 -19 0 
1 64 -12 0 
1 -8 137 0 
1 76 135 0 
1 103 -66 0 
1 71 33 0 
1 143 55 0 
1 -5 49 0 
1 39 -4 0 
1 50 -78 0 
1 -53 -90 0 
1 66 -43 0 
1 98 82 0 
1 42 66 0 
1 70 17 0 
1 108 -131 0 
1 -32 -92 0 
1 112 30 0 
1 125 60 0 
1 72 106 0 
1 28 -49 0 
1 93 -94 0 
1 -78 92 0 
1 91 -15 0 
1 64 49 0 
1 56 -44 0 
1 15 -143 0 
1 -132 -109 0 
1 -129 13 0 
1 119 42 0 
1 -139 -118 0 
1 130 141 0 
1 47 95 0 
1 125 133 0 
1 86 -20 0 
1 -65 -1 0 
1 41 -125 0 
1 -94 73 0 
1 75 -145 0 
1 72 -17 0 
1 118 124 0 
1 32 -69 0 
1 -25 39 0 
1 70 123 0 
1 -23 10 0 
1 -88 -132 0 
1 -55 -86 0 
1 99 135 0 
1 -18 -77 0 
